c Reading file examples/theorem_prover/mmc_encoding/encoding.dimacs
c Building 1-fold quantitative self-composition...
c ind 249  250  251  252  253  254  255  256  293  294  295  296  297  298  299  300  301  302  303  304  365  367  368  369  370  371  372  373  374  375  376  377  378  379  380  381  385  386  390  391  395  396 0
c previous ind: 823  842  845  848  855  856  859  860  863  864  867  868  871  872  875  878  881  884  885  888  889  892  893  896  897  900  901  904  905  908  909  912  913  916  917  920  923  924  927  928  929  931  932  933 0
c This is a CNF SAT formula in the DIMACS CNF format,
c produced with the bc2cnf translator by Tommi Junttila;
c see http://users.ics.aalto.fi/tjunttil/circuits/index.html
c phi_Gamma_det <-> 1
c phi_Gamma <-> 1
c phi_T_feature_det <-> 1
c phi_T_transitions <-> 1
c phi_T_transitions_consistency <-> 1
c phi_T <-> 1
c phi_sim_leaves <-> 1
c phi_sim_transition <-> 1
c phi_sim <-> 1
c FORMULA <-> 1
c pi_2 <-> 2
c pi_1 <-> 135
c pi_0 <-> 175
c tau_2_3_H1_1 <-> 249
c tau_2_3_H1_0 <-> 250
c tau_2_2_H1_1 <-> 251
c tau_2_2_H1_0 <-> 252
c tau_2_1_H1_1 <-> 253
c tau_2_1_H1_0 <-> 254
c tau_2_0_H1_1 <-> 255
c tau_2_0_H1_0 <-> 256
c tau_1_3_H1_1 <-> 293
c tau_1_3_H1_0 <-> 294
c tau_1_3_2 <-> 295
c tau_1_2_H1_1 <-> 296
c tau_1_2_H1_0 <-> 297
c tau_1_2_2 <-> 298
c tau_1_1_H1_1 <-> 299
c tau_1_1_H1_0 <-> 300
c tau_1_1_2 <-> 301
c tau_1_0_H1_1 <-> 302
c tau_1_0_H1_0 <-> 303
c tau_1_0_2 <-> 304
c tau_0_3_H1_1 <-> 365
c tau_0_3_H1_0 <-> 367
c tau_0_3_2 <-> 368
c tau_0_3_1 <-> 369
c tau_0_2_H1_1 <-> 370
c tau_0_2_H1_0 <-> 371
c tau_0_2_2 <-> 372
c tau_0_2_1 <-> 373
c tau_0_1_H1_1 <-> 374
c tau_0_1_H1_0 <-> 375
c tau_0_1_2 <-> 376
c tau_0_1_1 <-> 377
c tau_0_0_H1_1 <-> 378
c tau_0_0_H1_0 <-> 379
c tau_0_0_2 <-> 380
c tau_0_0_1 <-> 381
c lam_2_F10 <-> 385
c lam_2_F1 <-> 386
c lam_1_F10 <-> 390
c lam_1_F1 <-> 391
c lam_0_F10 <-> 395
c lam_0_F1 <-> 396
c phi_Gamma_val <-> 819
c F1_P177 <-> 823
c F1_N23 <-> 842
c F10_P620 <-> 845
c F10_P520 <-> 848
c F10_P220 <-> 855
c F1_N123 <-> 856
c F10_P300 <-> 859
c F1_P80 <-> 860
c F10_P430 <-> 863
c F1_P74 <-> 864
c F10_P260 <-> 867
c F1_P23 <-> 868
c F10_P110 <-> 871
c F1_P38 <-> 872
c F10_P450 <-> 875
c F10_P190 <-> 878
c F1_P28 <-> 881
c F10_P440 <-> 884
c F1_P60 <-> 885
c F10_P270 <-> 888
c F1_P52 <-> 889
c F10_P500 <-> 892
c F1_P99 <-> 893
c F10_P150 <-> 896
c F1_P26 <-> 897
c F10_P480 <-> 900
c F1_P87 <-> 901
c F10_P280 <-> 904
c F1_P83 <-> 905
c F10_P130 <-> 908
c F1_P78 <-> 909
c F10_P320 <-> 912
c F1_P51 <-> 913
c F10_P409 <-> 916
c F1_P56 <-> 917
c F10_P350 <-> 920
c F10_P180 <-> 923
c F1_P13 <-> 924
c pi_H1_0 <-> 927
c H1_P0 <-> 927
c F10_P120 <-> 928
c F1_P84 <-> 929
c pi_H1_1 <-> 931
c H1_P100 <-> 931
c F10_P420 <-> 932
c F1_P77 <-> 933
c ind 823 842 845 848 855 856 859 860 863 864 867 868 871 872 875 878 881 884 885 888 889 892 893 896 897 900 901 904 905 908 909 912 913 916 917 920 923 924 927 928 929 931 932 933 0
p cnf 935 2594
1 0
2 -3 0
2 -27 0
-2 27 3 0
-3 4 0
-3 77 0
3 -77 -4 0
-4 5 0
-4 385 0
4 -385 -5 0
5 -6 0
5 -51 0
-5 51 6 0
6 -7 0
6 -55 0
-6 55 7 0
7 -8 0
7 -57 0
-7 57 8 0
8 -9 0
8 -59 0
-8 59 9 0
9 -10 0
9 -111 0
-9 111 10 0
10 -11 0
10 -113 0
-10 113 11 0
11 -12 0
11 -115 0
-11 115 12 0
12 -13 0
12 -117 0
-12 117 13 0
13 -14 0
13 -121 0
-13 121 14 0
14 -15 0
14 -123 0
-14 123 15 0
15 -16 0
15 -125 0
-15 125 16 0
16 -17 0
16 -127 0
-16 127 17 0
17 -18 0
17 -63 0
-17 63 18 0
18 -19 0
18 -82 0
-18 82 19 0
19 -20 0
19 -101 0
-19 101 20 0
20 -21 0
20 -103 0
-20 103 21 0
21 -22 0
21 -86 0
-21 86 22 0
22 -23 0
22 -65 0
-22 65 23 0
23 -24 0
23 -67 0
-23 67 24 0
24 -25 0
24 -90 0
-24 90 25 0
25 -26 0
25 -91 0
-25 91 26 0
26 -74 0
26 -133 0
-26 133 74 0
27 -28 0
27 -36 0
-27 36 28 0
-28 29 0
-28 94 0
28 -94 -29 0
-29 30 0
-29 385 0
29 -385 -30 0
30 -31 0
30 -53 0
-30 53 31 0
31 -32 0
31 -61 0
-31 61 32 0
32 -33 0
32 -119 0
-32 119 33 0
33 -34 0
33 -129 0
-33 129 34 0
34 -35 0
34 -131 0
-34 131 35 0
35 -69 0
35 -88 0
-35 88 69 0
36 -37 0
36 -44 0
-36 44 37 0
-37 38 0
-37 106 0
37 -106 -38 0
-38 39 0
-38 385 0
38 -385 -39 0
39 -40 0
39 -99 0
-39 99 40 0
40 -41 0
40 -84 0
-40 84 41 0
41 -42 0
41 -104 0
-41 104 42 0
42 -43 0
42 -71 0
-42 71 43 0
43 -73 0
43 -134 0
-43 134 73 0
44 -45 0
44 -75 0
-44 75 45 0
-45 46 0
-45 49 0
45 -49 -46 0
-46 47 0
-46 48 0
46 -48 -47 0
47 249 0
47 -931 0
-47 931 -249 0
48 250 0
48 -927 0
-48 927 -250 0
-49 50 0
-49 386 0
49 -386 -50 0
50 -51 0
50 -52 0
-50 52 51 0
-51 823 0
-51 912 0
51 -912 -823 0
52 -53 0
52 -54 0
-52 54 53 0
-53 823 0
-53 855 0
53 -855 -823 0
54 -55 0
54 -56 0
-54 56 55 0
-55 845 0
-55 933 0
55 -933 -845 0
56 -57 0
56 -58 0
-56 58 57 0
-57 848 0
-57 933 0
57 -933 -848 0
58 -59 0
58 -60 0
-58 60 59 0
-59 912 0
-59 933 0
59 -933 -912 0
60 -61 0
60 -62 0
-60 62 61 0
-61 855 0
-61 933 0
61 -933 -855 0
62 -63 0
62 -64 0
-62 64 63 0
-63 859 0
-63 860 0
63 -860 -859 0
64 -65 0
64 -66 0
-64 66 65 0
-65 892 0
-65 893 0
65 -893 -892 0
66 -67 0
66 -68 0
-66 68 67 0
-67 900 0
-67 901 0
67 -901 -900 0
68 -69 0
68 -70 0
-68 70 69 0
-69 904 0
-69 905 0
69 -905 -904 0
70 -71 0
70 -72 0
-70 72 71 0
-71 908 0
-71 909 0
71 -909 -908 0
72 -73 0
72 -74 0
-72 74 73 0
-73 928 0
-73 929 0
73 -929 -928 0
-74 932 0
-74 933 0
74 -933 -932 0
75 -76 0
75 -92 0
-75 92 76 0
-76 77 0
-76 80 0
76 -80 -77 0
-77 78 0
-77 79 0
77 -79 -78 0
78 251 0
78 -931 0
-78 931 -251 0
79 252 0
79 -927 0
-79 927 -252 0
-80 81 0
-80 386 0
80 -386 -81 0
81 -82 0
81 -83 0
-81 83 82 0
-82 863 0
-82 864 0
82 -864 -863 0
83 -84 0
83 -85 0
-83 85 84 0
-84 878 0
-84 885 0
84 -885 -878 0
85 -86 0
85 -87 0
-85 87 86 0
-86 884 0
-86 885 0
86 -885 -884 0
87 -88 0
87 -89 0
-87 89 88 0
-88 888 0
-88 889 0
88 -889 -888 0
89 -90 0
89 -91 0
-89 91 90 0
-90 912 0
-90 913 0
90 -913 -912 0
-91 916 0
-91 917 0
91 -917 -916 0
92 -93 0
92 -105 0
-92 105 93 0
-93 94 0
-93 97 0
93 -97 -94 0
-94 95 0
-94 96 0
94 -96 -95 0
95 253 0
95 -931 0
-95 931 -253 0
96 254 0
96 -927 0
-96 927 -254 0
-97 98 0
-97 386 0
97 -386 -98 0
98 -99 0
98 -100 0
-98 100 99 0
-99 871 0
-99 872 0
99 -872 -871 0
100 -101 0
100 -102 0
-100 102 101 0
-101 875 0
-101 881 0
101 -881 -875 0
102 -103 0
102 -104 0
-102 104 103 0
-103 881 0
-103 920 0
103 -920 -881 0
-104 896 0
-104 897 0
104 -897 -896 0
-105 106 0
-105 109 0
105 -109 -106 0
-106 107 0
-106 108 0
106 -108 -107 0
107 255 0
107 -931 0
-107 931 -255 0
108 256 0
108 -927 0
-108 927 -256 0
-109 110 0
-109 386 0
109 -386 -110 0
110 -111 0
110 -112 0
-110 112 111 0
-111 842 0
-111 845 0
111 -845 -842 0
112 -113 0
112 -114 0
-112 114 113 0
-113 842 0
-113 848 0
113 -848 -842 0
114 -115 0
114 -116 0
-114 116 115 0
-115 842 0
-115 932 0
115 -932 -842 0
116 -117 0
116 -118 0
-116 118 117 0
-117 842 0
-117 912 0
117 -912 -842 0
118 -119 0
118 -120 0
-118 120 119 0
-119 842 0
-119 855 0
119 -855 -842 0
120 -121 0
120 -122 0
-120 122 121 0
-121 845 0
-121 856 0
121 -856 -845 0
122 -123 0
122 -124 0
-122 124 123 0
-123 848 0
-123 856 0
123 -856 -848 0
124 -125 0
124 -126 0
-124 126 125 0
-125 856 0
-125 932 0
125 -932 -856 0
126 -127 0
126 -128 0
-126 128 127 0
-127 856 0
-127 912 0
127 -912 -856 0
128 -129 0
128 -130 0
-128 130 129 0
-129 855 0
-129 856 0
129 -856 -855 0
130 -131 0
130 -132 0
-130 132 131 0
-131 867 0
-131 868 0
131 -868 -867 0
132 -133 0
132 -134 0
-132 134 133 0
-133 920 0
-133 924 0
133 -924 -920 0
-134 923 0
-134 924 0
134 -924 -923 0
135 -136 0
135 -138 0
-135 138 136 0
-136 137 0
-136 154 0
136 -154 -137 0
-137 5 0
-137 390 0
137 -390 -5 0
138 -139 0
138 -141 0
-138 141 139 0
-139 140 0
-139 162 0
139 -162 -140 0
-140 30 0
-140 390 0
140 -390 -30 0
141 -142 0
141 -144 0
-141 144 142 0
-142 143 0
-142 169 0
142 -169 -143 0
-143 39 0
-143 390 0
143 -390 -39 0
144 -145 0
144 -152 0
-144 152 145 0
-145 146 0
-145 151 0
145 -151 -146 0
-146 147 0
-146 148 0
146 -148 -147 0
147 293 0
147 -931 0
-147 931 -293 0
-148 149 0
-148 150 0
148 -150 -149 0
149 294 0
149 -927 0
-149 927 -294 0
150 -2 0
150 295 0
-150 -295 2 0
-151 50 0
-151 391 0
151 -391 -50 0
152 -153 0
152 -160 0
-152 160 153 0
-153 154 0
-153 159 0
153 -159 -154 0
-154 155 0
-154 156 0
154 -156 -155 0
155 296 0
155 -931 0
-155 931 -296 0
-156 157 0
-156 158 0
156 -158 -157 0
157 297 0
157 -927 0
-157 927 -297 0
158 -2 0
158 298 0
-158 -298 2 0
-159 81 0
-159 391 0
159 -391 -81 0
160 -161 0
160 -168 0
-160 168 161 0
-161 162 0
-161 167 0
161 -167 -162 0
-162 163 0
-162 164 0
162 -164 -163 0
163 299 0
163 -931 0
-163 931 -299 0
-164 165 0
-164 166 0
164 -166 -165 0
165 300 0
165 -927 0
-165 927 -300 0
166 -2 0
166 301 0
-166 -301 2 0
-167 98 0
-167 391 0
167 -391 -98 0
-168 169 0
-168 174 0
168 -174 -169 0
-169 170 0
-169 171 0
169 -171 -170 0
170 302 0
170 -931 0
-170 931 -302 0
-171 172 0
-171 173 0
171 -173 -172 0
172 303 0
172 -927 0
-172 927 -303 0
173 -2 0
173 304 0
-173 -304 2 0
-174 110 0
-174 391 0
174 -391 -110 0
175 -176 0
175 -178 0
-175 178 176 0
175 0
-176 177 0
-176 196 0
176 -196 -177 0
-177 5 0
-177 395 0
177 -395 -5 0
178 -179 0
178 -181 0
-178 181 179 0
-179 180 0
-179 206 0
179 -206 -180 0
-180 30 0
-180 395 0
180 -395 -30 0
181 -182 0
181 -184 0
-181 184 182 0
-182 183 0
-182 215 0
182 -215 -183 0
-183 39 0
-183 395 0
183 -395 -39 0
184 -185 0
184 -194 0
-184 194 185 0
-185 186 0
-185 193 0
185 -193 -186 0
-186 187 0
-186 188 0
186 -188 -187 0
187 365 0
187 -931 0
-187 931 -365 0
-188 189 0
-188 190 0
188 -190 -189 0
189 367 0
189 -927 0
-189 927 -367 0
-190 191 0
-190 192 0
190 -192 -191 0
191 -2 0
191 368 0
-191 -368 2 0
192 -135 0
192 369 0
-192 -369 135 0
-193 50 0
-193 396 0
193 -396 -50 0
194 -195 0
194 -204 0
-194 204 195 0
-195 196 0
-195 203 0
195 -203 -196 0
-196 197 0
-196 198 0
196 -198 -197 0
197 370 0
197 -931 0
-197 931 -370 0
-198 199 0
-198 200 0
198 -200 -199 0
199 371 0
199 -927 0
-199 927 -371 0
-200 201 0
-200 202 0
200 -202 -201 0
201 -2 0
201 372 0
-201 -372 2 0
202 -135 0
202 373 0
-202 -373 135 0
-203 81 0
-203 396 0
203 -396 -81 0
204 -205 0
204 -214 0
-204 214 205 0
-205 206 0
-205 213 0
205 -213 -206 0
-206 207 0
-206 208 0
206 -208 -207 0
207 374 0
207 -931 0
-207 931 -374 0
-208 209 0
-208 210 0
208 -210 -209 0
209 375 0
209 -927 0
-209 927 -375 0
-210 211 0
-210 212 0
210 -212 -211 0
211 -2 0
211 376 0
-211 -376 2 0
212 -135 0
212 377 0
-212 -377 135 0
-213 98 0
-213 396 0
213 -396 -98 0
-214 215 0
-214 222 0
214 -222 -215 0
-215 216 0
-215 217 0
215 -217 -216 0
216 378 0
216 -931 0
-216 931 -378 0
-217 218 0
-217 219 0
217 -219 -218 0
218 379 0
218 -927 0
-218 927 -379 0
-219 220 0
-219 221 0
219 -221 -220 0
220 -2 0
220 380 0
-220 -380 2 0
221 -135 0
221 381 0
-221 -381 135 0
-222 110 0
-222 396 0
222 -396 -110 0
223 385 0
223 -224 0
-223 224 -385 0
223 0
-224 -249 0
-224 -250 0
224 250 249 0
225 390 0
225 -226 0
-225 226 -390 0
225 0
-226 -293 0
-226 227 0
226 -227 293 0
-227 -294 0
-227 -295 0
227 295 294 0
228 395 0
228 -229 0
-228 229 -395 0
228 0
-229 -365 0
-229 230 0
229 -230 365 0
-230 -367 0
-230 231 0
230 -231 367 0
-231 -368 0
-231 -369 0
231 369 368 0
232 385 0
232 -233 0
-232 233 -385 0
232 0
-233 234 0
-233 237 0
233 -237 -234 0
234 -235 0
234 -236 0
-234 236 235 0
-235 -252 0
-235 251 0
235 -251 252 0
-236 -251 0
-236 252 0
236 -252 251 0
-237 238 0
-237 241 0
237 -241 -238 0
238 -239 0
238 -240 0
-238 240 239 0
-239 -254 0
-239 253 0
239 -253 254 0
-240 -253 0
-240 254 0
240 -254 253 0
241 -242 0
241 -243 0
-241 243 242 0
-242 -256 0
-242 255 0
242 -255 256 0
-243 -255 0
-243 256 0
243 -256 255 0
244 386 0
244 -245 0
-244 245 -386 0
244 0
-245 233 0
-245 246 0
245 -246 -233 0
246 -247 0
246 -248 0
-246 248 247 0
-247 -250 0
-247 249 0
247 -249 250 0
-248 -249 0
-248 250 0
248 -250 249 0
257 390 0
257 -258 0
-257 258 -390 0
257 0
-258 259 0
-258 267 0
258 -267 -259 0
259 -260 0
259 -265 0
-259 265 260 0
260 -261 0
260 -263 0
-260 263 261 0
-261 262 0
-261 296 0
261 -296 -262 0
-262 -297 0
-262 -298 0
262 298 297 0
-263 264 0
-263 297 0
263 -297 -264 0
-264 -296 0
-264 -298 0
264 298 296 0
-265 266 0
-265 298 0
265 -298 -266 0
-266 -296 0
-266 -297 0
266 297 296 0
-267 268 0
-267 276 0
267 -276 -268 0
268 -269 0
268 -274 0
-268 274 269 0
269 -270 0
269 -272 0
-269 272 270 0
-270 271 0
-270 299 0
270 -299 -271 0
-271 -300 0
-271 -301 0
271 301 300 0
-272 273 0
-272 300 0
272 -300 -273 0
-273 -299 0
-273 -301 0
273 301 299 0
-274 275 0
-274 301 0
274 -301 -275 0
-275 -299 0
-275 -300 0
275 300 299 0
276 -277 0
276 -282 0
-276 282 277 0
277 -278 0
277 -280 0
-277 280 278 0
-278 279 0
-278 302 0
278 -302 -279 0
-279 -303 0
-279 -304 0
279 304 303 0
-280 281 0
-280 303 0
280 -303 -281 0
-281 -302 0
-281 -304 0
281 304 302 0
-282 283 0
-282 304 0
282 -304 -283 0
-283 -302 0
-283 -303 0
283 303 302 0
284 391 0
284 -285 0
-284 285 -391 0
284 0
-285 258 0
-285 286 0
285 -286 -258 0
286 -287 0
286 -291 0
-286 291 287 0
287 -288 0
287 -289 0
-287 289 288 0
-288 227 0
-288 293 0
288 -293 -227 0
-289 290 0
-289 294 0
289 -294 -290 0
-290 -293 0
-290 -295 0
290 295 293 0
-291 292 0
-291 295 0
291 -295 -292 0
-292 -293 0
-292 -294 0
292 294 293 0
305 395 0
305 -306 0
-305 306 -395 0
305 0
-306 307 0
-306 321 0
306 -321 -307 0
307 -308 0
307 -314 0
-307 314 308 0
308 -309 0
308 -311 0
-308 311 309 0
-309 310 0
-309 370 0
309 -370 -310 0
-310 -372 0
-310 317 0
310 -317 372 0
-311 312 0
-311 371 0
311 -371 -312 0
-312 -372 0
-312 313 0
312 -313 372 0
-313 -370 0
-313 -373 0
313 373 370 0
314 -315 0
314 -318 0
-314 318 315 0
-315 316 0
-315 372 0
315 -372 -316 0
-316 -370 0
-316 317 0
316 -317 370 0
-317 -371 0
-317 -373 0
317 373 371 0
-318 319 0
-318 373 0
318 -373 -319 0
-319 -370 0
-319 320 0
319 -320 370 0
-320 -371 0
-320 -372 0
320 372 371 0
-321 322 0
-321 336 0
321 -336 -322 0
322 -323 0
322 -329 0
-322 329 323 0
323 -324 0
323 -326 0
-323 326 324 0
-324 325 0
-324 374 0
324 -374 -325 0
-325 -376 0
-325 332 0
325 -332 376 0
-326 327 0
-326 375 0
326 -375 -327 0
-327 -376 0
-327 328 0
327 -328 376 0
-328 -374 0
-328 -377 0
328 377 374 0
329 -330 0
329 -333 0
-329 333 330 0
-330 331 0
-330 376 0
330 -376 -331 0
-331 -374 0
-331 332 0
331 -332 374 0
-332 -375 0
-332 -377 0
332 377 375 0
-333 334 0
-333 377 0
333 -377 -334 0
-334 -374 0
-334 335 0
334 -335 374 0
-335 -375 0
-335 -376 0
335 376 375 0
336 -337 0
336 -343 0
-336 343 337 0
337 -338 0
337 -340 0
-337 340 338 0
-338 339 0
-338 378 0
338 -378 -339 0
-339 -380 0
-339 346 0
339 -346 380 0
-340 341 0
-340 379 0
340 -379 -341 0
-341 -380 0
-341 342 0
341 -342 380 0
-342 -378 0
-342 -381 0
342 381 378 0
343 -344 0
343 -347 0
-343 347 344 0
-344 345 0
-344 380 0
344 -380 -345 0
-345 -378 0
-345 346 0
345 -346 378 0
-346 -379 0
-346 -381 0
346 381 379 0
-347 348 0
-347 381 0
347 -381 -348 0
-348 -378 0
-348 349 0
348 -349 378 0
-349 -379 0
-349 -380 0
349 380 379 0
350 396 0
350 -351 0
-350 351 -396 0
350 0
-351 306 0
-351 352 0
351 -352 -306 0
352 -353 0
352 -359 0
-352 359 353 0
353 -354 0
353 -356 0
-353 356 354 0
-354 355 0
-354 365 0
354 -365 -355 0
-355 -368 0
-355 362 0
355 -362 368 0
-356 357 0
-356 367 0
356 -367 -357 0
-357 -368 0
-357 358 0
357 -358 368 0
-358 -365 0
-358 -369 0
358 369 365 0
359 -360 0
359 -363 0
-359 363 360 0
-360 361 0
-360 368 0
360 -368 -361 0
-361 -365 0
-361 362 0
361 -362 365 0
-362 -367 0
-362 -369 0
362 369 367 0
-363 364 0
-363 369 0
363 -369 -364 0
-364 -365 0
-364 366 0
364 -366 365 0
-366 -367 0
-366 -368 0
366 368 367 0
382 -383 0
382 -384 0
-382 384 383 0
382 0
-383 -386 0
-383 385 0
383 -385 386 0
-384 -385 0
-384 386 0
384 -386 385 0
387 -388 0
387 -389 0
-387 389 388 0
387 0
-388 -391 0
-388 390 0
388 -390 391 0
-389 -390 0
-389 391 0
389 -391 390 0
392 -393 0
392 -394 0
-392 394 393 0
392 0
-393 -396 0
-393 395 0
393 -395 396 0
-394 -395 0
-394 396 0
394 -396 395 0
397 931 0
397 927 0
-397 -927 -931 0
397 0
398 848 0
398 845 0
-398 -845 -848 0
398 0
399 855 0
399 -400 0
-399 400 -855 0
399 0
-400 -848 0
-400 -845 0
400 845 848 0
401 859 0
401 -402 0
-401 402 -859 0
401 0
-402 -845 0
-402 403 0
402 -403 845 0
-403 -848 0
-403 -855 0
403 855 848 0
404 863 0
404 -405 0
-404 405 -863 0
404 0
-405 -845 0
-405 406 0
405 -406 845 0
-406 -848 0
-406 407 0
406 -407 848 0
-407 -855 0
-407 -859 0
407 859 855 0
408 867 0
408 -409 0
-408 409 -867 0
408 0
-409 -845 0
-409 410 0
409 -410 845 0
-410 -848 0
-410 411 0
410 -411 848 0
-411 -855 0
-411 412 0
411 -412 855 0
-412 -859 0
-412 -863 0
412 863 859 0
413 871 0
413 -414 0
-413 414 -871 0
413 0
-414 -845 0
-414 415 0
414 -415 845 0
-415 -848 0
-415 416 0
415 -416 848 0
-416 -855 0
-416 417 0
416 -417 855 0
-417 -859 0
-417 418 0
417 -418 859 0
-418 -863 0
-418 -867 0
418 867 863 0
419 875 0
419 -420 0
-419 420 -875 0
419 0
-420 -845 0
-420 421 0
420 -421 845 0
-421 -848 0
-421 422 0
421 -422 848 0
-422 -855 0
-422 423 0
422 -423 855 0
-423 -859 0
-423 424 0
423 -424 859 0
-424 -863 0
-424 425 0
424 -425 863 0
-425 -867 0
-425 -871 0
425 871 867 0
426 878 0
426 -427 0
-426 427 -878 0
426 0
-427 -845 0
-427 428 0
427 -428 845 0
-428 -848 0
-428 429 0
428 -429 848 0
-429 -855 0
-429 430 0
429 -430 855 0
-430 -859 0
-430 431 0
430 -431 859 0
-431 -863 0
-431 432 0
431 -432 863 0
-432 -867 0
-432 433 0
432 -433 867 0
-433 -871 0
-433 -875 0
433 875 871 0
434 884 0
434 -435 0
-434 435 -884 0
434 0
-435 -845 0
-435 436 0
435 -436 845 0
-436 -848 0
-436 437 0
436 -437 848 0
-437 -855 0
-437 438 0
437 -438 855 0
-438 -859 0
-438 439 0
438 -439 859 0
-439 -863 0
-439 440 0
439 -440 863 0
-440 -867 0
-440 441 0
440 -441 867 0
-441 -871 0
-441 442 0
441 -442 871 0
-442 -875 0
-442 -878 0
442 878 875 0
443 888 0
443 -444 0
-443 444 -888 0
443 0
-444 -845 0
-444 445 0
444 -445 845 0
-445 -848 0
-445 446 0
445 -446 848 0
-446 -855 0
-446 447 0
446 -447 855 0
-447 -859 0
-447 448 0
447 -448 859 0
-448 -863 0
-448 449 0
448 -449 863 0
-449 -867 0
-449 450 0
449 -450 867 0
-450 -871 0
-450 451 0
450 -451 871 0
-451 -875 0
-451 452 0
451 -452 875 0
-452 -878 0
-452 -884 0
452 884 878 0
453 892 0
453 -454 0
-453 454 -892 0
453 0
-454 -845 0
-454 455 0
454 -455 845 0
-455 -848 0
-455 456 0
455 -456 848 0
-456 -855 0
-456 457 0
456 -457 855 0
-457 -859 0
-457 458 0
457 -458 859 0
-458 -863 0
-458 459 0
458 -459 863 0
-459 -867 0
-459 460 0
459 -460 867 0
-460 -871 0
-460 461 0
460 -461 871 0
-461 -875 0
-461 462 0
461 -462 875 0
-462 -878 0
-462 463 0
462 -463 878 0
-463 -884 0
-463 -888 0
463 888 884 0
464 896 0
464 -465 0
-464 465 -896 0
464 0
-465 -845 0
-465 466 0
465 -466 845 0
-466 -848 0
-466 467 0
466 -467 848 0
-467 -855 0
-467 468 0
467 -468 855 0
-468 -859 0
-468 469 0
468 -469 859 0
-469 -863 0
-469 470 0
469 -470 863 0
-470 -867 0
-470 471 0
470 -471 867 0
-471 -871 0
-471 472 0
471 -472 871 0
-472 -875 0
-472 473 0
472 -473 875 0
-473 -878 0
-473 474 0
473 -474 878 0
-474 -884 0
-474 475 0
474 -475 884 0
-475 -888 0
-475 -892 0
475 892 888 0
476 900 0
476 -477 0
-476 477 -900 0
476 0
-477 -845 0
-477 478 0
477 -478 845 0
-478 -848 0
-478 479 0
478 -479 848 0
-479 -855 0
-479 480 0
479 -480 855 0
-480 -859 0
-480 481 0
480 -481 859 0
-481 -863 0
-481 482 0
481 -482 863 0
-482 -867 0
-482 483 0
482 -483 867 0
-483 -871 0
-483 484 0
483 -484 871 0
-484 -875 0
-484 485 0
484 -485 875 0
-485 -878 0
-485 486 0
485 -486 878 0
-486 -884 0
-486 487 0
486 -487 884 0
-487 -888 0
-487 488 0
487 -488 888 0
-488 -892 0
-488 -896 0
488 896 892 0
489 904 0
489 -490 0
-489 490 -904 0
489 0
-490 -845 0
-490 491 0
490 -491 845 0
-491 -848 0
-491 492 0
491 -492 848 0
-492 -855 0
-492 493 0
492 -493 855 0
-493 -859 0
-493 494 0
493 -494 859 0
-494 -863 0
-494 495 0
494 -495 863 0
-495 -867 0
-495 496 0
495 -496 867 0
-496 -871 0
-496 497 0
496 -497 871 0
-497 -875 0
-497 498 0
497 -498 875 0
-498 -878 0
-498 499 0
498 -499 878 0
-499 -884 0
-499 500 0
499 -500 884 0
-500 -888 0
-500 501 0
500 -501 888 0
-501 -892 0
-501 502 0
501 -502 892 0
-502 -896 0
-502 -900 0
502 900 896 0
503 908 0
503 -504 0
-503 504 -908 0
503 0
-504 -845 0
-504 505 0
504 -505 845 0
-505 -848 0
-505 506 0
505 -506 848 0
-506 -855 0
-506 507 0
506 -507 855 0
-507 -859 0
-507 508 0
507 -508 859 0
-508 -863 0
-508 509 0
508 -509 863 0
-509 -867 0
-509 510 0
509 -510 867 0
-510 -871 0
-510 511 0
510 -511 871 0
-511 -875 0
-511 512 0
511 -512 875 0
-512 -878 0
-512 513 0
512 -513 878 0
-513 -884 0
-513 514 0
513 -514 884 0
-514 -888 0
-514 515 0
514 -515 888 0
-515 -892 0
-515 516 0
515 -516 892 0
-516 -896 0
-516 517 0
516 -517 896 0
-517 -900 0
-517 -904 0
517 904 900 0
518 912 0
518 -519 0
-518 519 -912 0
518 0
-519 -845 0
-519 520 0
519 -520 845 0
-520 -848 0
-520 521 0
520 -521 848 0
-521 -855 0
-521 522 0
521 -522 855 0
-522 -859 0
-522 523 0
522 -523 859 0
-523 -863 0
-523 524 0
523 -524 863 0
-524 -867 0
-524 525 0
524 -525 867 0
-525 -871 0
-525 526 0
525 -526 871 0
-526 -875 0
-526 527 0
526 -527 875 0
-527 -878 0
-527 528 0
527 -528 878 0
-528 -884 0
-528 529 0
528 -529 884 0
-529 -888 0
-529 530 0
529 -530 888 0
-530 -892 0
-530 531 0
530 -531 892 0
-531 -896 0
-531 532 0
531 -532 896 0
-532 -900 0
-532 533 0
532 -533 900 0
-533 -904 0
-533 -908 0
533 908 904 0
534 916 0
534 -535 0
-534 535 -916 0
534 0
-535 -845 0
-535 536 0
535 -536 845 0
-536 -848 0
-536 537 0
536 -537 848 0
-537 -855 0
-537 538 0
537 -538 855 0
-538 -859 0
-538 539 0
538 -539 859 0
-539 -863 0
-539 540 0
539 -540 863 0
-540 -867 0
-540 541 0
540 -541 867 0
-541 -871 0
-541 542 0
541 -542 871 0
-542 -875 0
-542 543 0
542 -543 875 0
-543 -878 0
-543 544 0
543 -544 878 0
-544 -884 0
-544 545 0
544 -545 884 0
-545 -888 0
-545 546 0
545 -546 888 0
-546 -892 0
-546 547 0
546 -547 892 0
-547 -896 0
-547 548 0
547 -548 896 0
-548 -900 0
-548 549 0
548 -549 900 0
-549 -904 0
-549 550 0
549 -550 904 0
-550 -908 0
-550 -912 0
550 912 908 0
551 920 0
551 -552 0
-551 552 -920 0
551 0
-552 -845 0
-552 553 0
552 -553 845 0
-553 -848 0
-553 554 0
553 -554 848 0
-554 -855 0
-554 555 0
554 -555 855 0
-555 -859 0
-555 556 0
555 -556 859 0
-556 -863 0
-556 557 0
556 -557 863 0
-557 -867 0
-557 558 0
557 -558 867 0
-558 -871 0
-558 559 0
558 -559 871 0
-559 -875 0
-559 560 0
559 -560 875 0
-560 -878 0
-560 561 0
560 -561 878 0
-561 -884 0
-561 562 0
561 -562 884 0
-562 -888 0
-562 563 0
562 -563 888 0
-563 -892 0
-563 564 0
563 -564 892 0
-564 -896 0
-564 565 0
564 -565 896 0
-565 -900 0
-565 566 0
565 -566 900 0
-566 -904 0
-566 567 0
566 -567 904 0
-567 -908 0
-567 568 0
567 -568 908 0
-568 -912 0
-568 -916 0
568 916 912 0
569 923 0
569 -570 0
-569 570 -923 0
569 0
-570 -845 0
-570 571 0
570 -571 845 0
-571 -848 0
-571 572 0
571 -572 848 0
-572 -855 0
-572 573 0
572 -573 855 0
-573 -859 0
-573 574 0
573 -574 859 0
-574 -863 0
-574 575 0
574 -575 863 0
-575 -867 0
-575 576 0
575 -576 867 0
-576 -871 0
-576 577 0
576 -577 871 0
-577 -875 0
-577 578 0
577 -578 875 0
-578 -878 0
-578 579 0
578 -579 878 0
-579 -884 0
-579 580 0
579 -580 884 0
-580 -888 0
-580 581 0
580 -581 888 0
-581 -892 0
-581 582 0
581 -582 892 0
-582 -896 0
-582 583 0
582 -583 896 0
-583 -900 0
-583 584 0
583 -584 900 0
-584 -904 0
-584 585 0
584 -585 904 0
-585 -908 0
-585 586 0
585 -586 908 0
-586 -912 0
-586 587 0
586 -587 912 0
-587 -916 0
-587 -920 0
587 920 916 0
588 928 0
588 -589 0
-588 589 -928 0
588 0
-589 -845 0
-589 590 0
589 -590 845 0
-590 -848 0
-590 591 0
590 -591 848 0
-591 -855 0
-591 592 0
591 -592 855 0
-592 -859 0
-592 593 0
592 -593 859 0
-593 -863 0
-593 594 0
593 -594 863 0
-594 -867 0
-594 595 0
594 -595 867 0
-595 -871 0
-595 596 0
595 -596 871 0
-596 -875 0
-596 597 0
596 -597 875 0
-597 -878 0
-597 598 0
597 -598 878 0
-598 -884 0
-598 599 0
598 -599 884 0
-599 -888 0
-599 600 0
599 -600 888 0
-600 -892 0
-600 601 0
600 -601 892 0
-601 -896 0
-601 602 0
601 -602 896 0
-602 -900 0
-602 603 0
602 -603 900 0
-603 -904 0
-603 604 0
603 -604 904 0
-604 -908 0
-604 605 0
604 -605 908 0
-605 -912 0
-605 606 0
605 -606 912 0
-606 -916 0
-606 607 0
606 -607 916 0
-607 -920 0
-607 -923 0
607 923 920 0
608 932 0
608 -609 0
-608 609 -932 0
608 0
-609 -845 0
-609 610 0
609 -610 845 0
-610 -848 0
-610 611 0
610 -611 848 0
-611 -855 0
-611 612 0
611 -612 855 0
-612 -859 0
-612 613 0
612 -613 859 0
-613 -863 0
-613 614 0
613 -614 863 0
-614 -867 0
-614 615 0
614 -615 867 0
-615 -871 0
-615 616 0
615 -616 871 0
-616 -875 0
-616 617 0
616 -617 875 0
-617 -878 0
-617 618 0
617 -618 878 0
-618 -884 0
-618 619 0
618 -619 884 0
-619 -888 0
-619 620 0
619 -620 888 0
-620 -892 0
-620 621 0
620 -621 892 0
-621 -896 0
-621 622 0
621 -622 896 0
-622 -900 0
-622 623 0
622 -623 900 0
-623 -904 0
-623 624 0
623 -624 904 0
-624 -908 0
-624 625 0
624 -625 908 0
-625 -912 0
-625 626 0
625 -626 912 0
-626 -916 0
-626 627 0
626 -627 916 0
-627 -920 0
-627 628 0
627 -628 920 0
-628 -923 0
-628 -928 0
628 928 923 0
629 842 0
629 823 0
-629 -823 -842 0
629 0
630 856 0
630 -631 0
-630 631 -856 0
630 0
-631 -842 0
-631 -823 0
631 823 842 0
632 860 0
632 -633 0
-632 633 -860 0
632 0
-633 -823 0
-633 634 0
633 -634 823 0
-634 -842 0
-634 -856 0
634 856 842 0
635 864 0
635 -636 0
-635 636 -864 0
635 0
-636 -823 0
-636 637 0
636 -637 823 0
-637 -842 0
-637 638 0
637 -638 842 0
-638 -856 0
-638 -860 0
638 860 856 0
639 868 0
639 -640 0
-639 640 -868 0
639 0
-640 -823 0
-640 641 0
640 -641 823 0
-641 -842 0
-641 642 0
641 -642 842 0
-642 -856 0
-642 643 0
642 -643 856 0
-643 -860 0
-643 -864 0
643 864 860 0
644 872 0
644 -645 0
-644 645 -872 0
644 0
-645 -823 0
-645 646 0
645 -646 823 0
-646 -842 0
-646 647 0
646 -647 842 0
-647 -856 0
-647 648 0
647 -648 856 0
-648 -860 0
-648 649 0
648 -649 860 0
-649 -864 0
-649 -868 0
649 868 864 0
650 881 0
650 -651 0
-650 651 -881 0
650 0
-651 -823 0
-651 652 0
651 -652 823 0
-652 -842 0
-652 653 0
652 -653 842 0
-653 -856 0
-653 654 0
653 -654 856 0
-654 -860 0
-654 655 0
654 -655 860 0
-655 -864 0
-655 656 0
655 -656 864 0
-656 -868 0
-656 -872 0
656 872 868 0
657 885 0
657 -658 0
-657 658 -885 0
657 0
-658 -823 0
-658 659 0
658 -659 823 0
-659 -842 0
-659 660 0
659 -660 842 0
-660 -856 0
-660 661 0
660 -661 856 0
-661 -860 0
-661 662 0
661 -662 860 0
-662 -864 0
-662 663 0
662 -663 864 0
-663 -868 0
-663 664 0
663 -664 868 0
-664 -872 0
-664 -881 0
664 881 872 0
665 889 0
665 -666 0
-665 666 -889 0
665 0
-666 -823 0
-666 667 0
666 -667 823 0
-667 -842 0
-667 668 0
667 -668 842 0
-668 -856 0
-668 669 0
668 -669 856 0
-669 -860 0
-669 670 0
669 -670 860 0
-670 -864 0
-670 671 0
670 -671 864 0
-671 -868 0
-671 672 0
671 -672 868 0
-672 -872 0
-672 673 0
672 -673 872 0
-673 -881 0
-673 -885 0
673 885 881 0
674 893 0
674 -675 0
-674 675 -893 0
674 0
-675 -823 0
-675 676 0
675 -676 823 0
-676 -842 0
-676 677 0
676 -677 842 0
-677 -856 0
-677 678 0
677 -678 856 0
-678 -860 0
-678 679 0
678 -679 860 0
-679 -864 0
-679 680 0
679 -680 864 0
-680 -868 0
-680 681 0
680 -681 868 0
-681 -872 0
-681 682 0
681 -682 872 0
-682 -881 0
-682 683 0
682 -683 881 0
-683 -885 0
-683 -889 0
683 889 885 0
684 897 0
684 -685 0
-684 685 -897 0
684 0
-685 -823 0
-685 686 0
685 -686 823 0
-686 -842 0
-686 687 0
686 -687 842 0
-687 -856 0
-687 688 0
687 -688 856 0
-688 -860 0
-688 689 0
688 -689 860 0
-689 -864 0
-689 690 0
689 -690 864 0
-690 -868 0
-690 691 0
690 -691 868 0
-691 -872 0
-691 692 0
691 -692 872 0
-692 -881 0
-692 693 0
692 -693 881 0
-693 -885 0
-693 694 0
693 -694 885 0
-694 -889 0
-694 -893 0
694 893 889 0
695 901 0
695 -696 0
-695 696 -901 0
695 0
-696 -823 0
-696 697 0
696 -697 823 0
-697 -842 0
-697 698 0
697 -698 842 0
-698 -856 0
-698 699 0
698 -699 856 0
-699 -860 0
-699 700 0
699 -700 860 0
-700 -864 0
-700 701 0
700 -701 864 0
-701 -868 0
-701 702 0
701 -702 868 0
-702 -872 0
-702 703 0
702 -703 872 0
-703 -881 0
-703 704 0
703 -704 881 0
-704 -885 0
-704 705 0
704 -705 885 0
-705 -889 0
-705 706 0
705 -706 889 0
-706 -893 0
-706 -897 0
706 897 893 0
707 905 0
707 -708 0
-707 708 -905 0
707 0
-708 -823 0
-708 709 0
708 -709 823 0
-709 -842 0
-709 710 0
709 -710 842 0
-710 -856 0
-710 711 0
710 -711 856 0
-711 -860 0
-711 712 0
711 -712 860 0
-712 -864 0
-712 713 0
712 -713 864 0
-713 -868 0
-713 714 0
713 -714 868 0
-714 -872 0
-714 715 0
714 -715 872 0
-715 -881 0
-715 716 0
715 -716 881 0
-716 -885 0
-716 717 0
716 -717 885 0
-717 -889 0
-717 718 0
717 -718 889 0
-718 -893 0
-718 719 0
718 -719 893 0
-719 -897 0
-719 -901 0
719 901 897 0
720 909 0
720 -721 0
-720 721 -909 0
720 0
-721 -823 0
-721 722 0
721 -722 823 0
-722 -842 0
-722 723 0
722 -723 842 0
-723 -856 0
-723 724 0
723 -724 856 0
-724 -860 0
-724 725 0
724 -725 860 0
-725 -864 0
-725 726 0
725 -726 864 0
-726 -868 0
-726 727 0
726 -727 868 0
-727 -872 0
-727 728 0
727 -728 872 0
-728 -881 0
-728 729 0
728 -729 881 0
-729 -885 0
-729 730 0
729 -730 885 0
-730 -889 0
-730 731 0
730 -731 889 0
-731 -893 0
-731 732 0
731 -732 893 0
-732 -897 0
-732 733 0
732 -733 897 0
-733 -901 0
-733 -905 0
733 905 901 0
734 913 0
734 -735 0
-734 735 -913 0
734 0
-735 -823 0
-735 736 0
735 -736 823 0
-736 -842 0
-736 737 0
736 -737 842 0
-737 -856 0
-737 738 0
737 -738 856 0
-738 -860 0
-738 739 0
738 -739 860 0
-739 -864 0
-739 740 0
739 -740 864 0
-740 -868 0
-740 741 0
740 -741 868 0
-741 -872 0
-741 742 0
741 -742 872 0
-742 -881 0
-742 743 0
742 -743 881 0
-743 -885 0
-743 744 0
743 -744 885 0
-744 -889 0
-744 745 0
744 -745 889 0
-745 -893 0
-745 746 0
745 -746 893 0
-746 -897 0
-746 747 0
746 -747 897 0
-747 -901 0
-747 748 0
747 -748 901 0
-748 -905 0
-748 -909 0
748 909 905 0
749 917 0
749 -750 0
-749 750 -917 0
749 0
-750 -823 0
-750 751 0
750 -751 823 0
-751 -842 0
-751 752 0
751 -752 842 0
-752 -856 0
-752 753 0
752 -753 856 0
-753 -860 0
-753 754 0
753 -754 860 0
-754 -864 0
-754 755 0
754 -755 864 0
-755 -868 0
-755 756 0
755 -756 868 0
-756 -872 0
-756 757 0
756 -757 872 0
-757 -881 0
-757 758 0
757 -758 881 0
-758 -885 0
-758 759 0
758 -759 885 0
-759 -889 0
-759 760 0
759 -760 889 0
-760 -893 0
-760 761 0
760 -761 893 0
-761 -897 0
-761 762 0
761 -762 897 0
-762 -901 0
-762 763 0
762 -763 901 0
-763 -905 0
-763 764 0
763 -764 905 0
-764 -909 0
-764 -913 0
764 913 909 0
765 924 0
765 -766 0
-765 766 -924 0
765 0
-766 -823 0
-766 767 0
766 -767 823 0
-767 -842 0
-767 768 0
767 -768 842 0
-768 -856 0
-768 769 0
768 -769 856 0
-769 -860 0
-769 770 0
769 -770 860 0
-770 -864 0
-770 771 0
770 -771 864 0
-771 -868 0
-771 772 0
771 -772 868 0
-772 -872 0
-772 773 0
772 -773 872 0
-773 -881 0
-773 774 0
773 -774 881 0
-774 -885 0
-774 775 0
774 -775 885 0
-775 -889 0
-775 776 0
775 -776 889 0
-776 -893 0
-776 777 0
776 -777 893 0
-777 -897 0
-777 778 0
777 -778 897 0
-778 -901 0
-778 779 0
778 -779 901 0
-779 -905 0
-779 780 0
779 -780 905 0
-780 -909 0
-780 781 0
780 -781 909 0
-781 -913 0
-781 -917 0
781 917 913 0
782 929 0
782 -783 0
-782 783 -929 0
782 0
-783 -823 0
-783 784 0
783 -784 823 0
-784 -842 0
-784 785 0
784 -785 842 0
-785 -856 0
-785 786 0
785 -786 856 0
-786 -860 0
-786 787 0
786 -787 860 0
-787 -864 0
-787 788 0
787 -788 864 0
-788 -868 0
-788 789 0
788 -789 868 0
-789 -872 0
-789 790 0
789 -790 872 0
-790 -881 0
-790 791 0
790 -791 881 0
-791 -885 0
-791 792 0
791 -792 885 0
-792 -889 0
-792 793 0
792 -793 889 0
-793 -893 0
-793 794 0
793 -794 893 0
-794 -897 0
-794 795 0
794 -795 897 0
-795 -901 0
-795 796 0
795 -796 901 0
-796 -905 0
-796 797 0
796 -797 905 0
-797 -909 0
-797 798 0
797 -798 909 0
-798 -913 0
-798 799 0
798 -799 913 0
-799 -917 0
-799 -924 0
799 924 917 0
800 933 0
800 -801 0
-800 801 -933 0
800 0
-801 -823 0
-801 802 0
801 -802 823 0
-802 -842 0
-802 803 0
802 -803 842 0
-803 -856 0
-803 804 0
803 -804 856 0
-804 -860 0
-804 805 0
804 -805 860 0
-805 -864 0
-805 806 0
805 -806 864 0
-806 -868 0
-806 807 0
806 -807 868 0
-807 -872 0
-807 808 0
807 -808 872 0
-808 -881 0
-808 809 0
808 -809 881 0
-809 -885 0
-809 810 0
809 -810 885 0
-810 -889 0
-810 811 0
810 -811 889 0
-811 -893 0
-811 812 0
811 -812 893 0
-812 -897 0
-812 813 0
812 -813 897 0
-813 -901 0
-813 814 0
813 -814 901 0
-814 -905 0
-814 815 0
814 -815 905 0
-815 -909 0
-815 816 0
815 -816 909 0
-816 -913 0
-816 817 0
816 -817 913 0
-817 -917 0
-817 818 0
817 -818 917 0
-818 -924 0
-818 -929 0
818 929 924 0
819 -820 0
819 -821 0
-819 821 820 0
819 0
-820 51 0
-820 931 0
820 -931 -51 0
821 -822 0
821 -824 0
-821 824 822 0
-822 53 0
-822 927 0
822 -927 -53 0
824 -825 0
824 -826 0
-824 826 825 0
-825 55 0
-825 931 0
825 -931 -55 0
826 -827 0
826 -828 0
-826 828 827 0
-827 57 0
-827 931 0
827 -931 -57 0
828 -829 0
828 -830 0
-828 830 829 0
-829 59 0
-829 931 0
829 -931 -59 0
830 -831 0
830 -832 0
-830 832 831 0
-831 61 0
-831 931 0
831 -931 -61 0
832 -833 0
832 -834 0
-832 834 833 0
-833 111 0
-833 931 0
833 -931 -111 0
834 -835 0
834 -836 0
-834 836 835 0
-835 113 0
-835 927 0
835 -927 -113 0
836 -837 0
836 -838 0
-836 838 837 0
-837 115 0
-837 927 0
837 -927 -115 0
838 -839 0
838 -840 0
-838 840 839 0
-839 117 0
-839 927 0
839 -927 -117 0
840 -841 0
840 -843 0
-840 843 841 0
-841 119 0
-841 927 0
841 -927 -119 0
843 -844 0
843 -846 0
-843 846 844 0
-844 121 0
-844 927 0
844 -927 -121 0
846 -847 0
846 -849 0
-846 849 847 0
-847 123 0
-847 927 0
847 -927 -123 0
849 -850 0
849 -851 0
-849 851 850 0
-850 125 0
-850 927 0
850 -927 -125 0
851 -852 0
851 -853 0
-851 853 852 0
-852 127 0
-852 927 0
852 -927 -127 0
853 -854 0
853 -857 0
-853 857 854 0
-854 129 0
-854 927 0
854 -927 -129 0
857 -858 0
857 -861 0
-857 861 858 0
-858 63 0
-858 931 0
858 -931 -63 0
861 -862 0
861 -865 0
-861 865 862 0
-862 82 0
-862 931 0
862 -931 -82 0
865 -866 0
865 -869 0
-865 869 866 0
-866 131 0
-866 927 0
866 -927 -131 0
869 -870 0
869 -873 0
-869 873 870 0
-870 99 0
-870 927 0
870 -927 -99 0
873 -874 0
873 -876 0
-873 876 874 0
-874 101 0
-874 931 0
874 -931 -101 0
876 -877 0
876 -879 0
-876 879 877 0
-877 84 0
-877 931 0
877 -931 -84 0
879 -880 0
879 -882 0
-879 882 880 0
-880 103 0
-880 931 0
880 -931 -103 0
882 -883 0
882 -886 0
-882 886 883 0
-883 86 0
-883 931 0
883 -931 -86 0
886 -887 0
886 -890 0
-886 890 887 0
-887 88 0
-887 931 0
887 -931 -88 0
890 -891 0
890 -894 0
-890 894 891 0
-891 65 0
-891 931 0
891 -931 -65 0
894 -895 0
894 -898 0
-894 898 895 0
-895 104 0
-895 927 0
895 -927 -104 0
898 -899 0
898 -902 0
-898 902 899 0
-899 67 0
-899 931 0
899 -931 -67 0
902 -903 0
902 -906 0
-902 906 903 0
-903 69 0
-903 931 0
903 -931 -69 0
906 -907 0
906 -910 0
-906 910 907 0
-907 71 0
-907 927 0
907 -927 -71 0
910 -911 0
910 -914 0
-910 914 911 0
-911 90 0
-911 931 0
911 -931 -90 0
914 -915 0
914 -918 0
-914 918 915 0
-915 91 0
-915 931 0
915 -931 -91 0
918 -919 0
918 -921 0
-918 921 919 0
-919 133 0
-919 931 0
919 -931 -133 0
921 -922 0
921 -925 0
-921 925 922 0
-922 134 0
-922 927 0
922 -927 -134 0
925 -926 0
925 -930 0
-925 930 926 0
-926 73 0
-926 927 0
926 -927 -73 0
-930 74 0
-930 931 0
930 -931 -74 0
